\Generated by Cardinal Operations

Maximize
   - 8 purchase(1) - 6 purchase(2) - 9 purchase(3) + 9 sales(1) 
   + 8 sales(2) + 10 sales(3) + 9 inventory(3) 
Subject To
 inventory_balance_1: - purchase(1) + sales(1) + inventory(1) = 200
 inventory_balance_2: - inventory(1) - purchase(2) + sales(2) 
   + inventory(2) = 0
 inventory_balance_3: - inventory(2) - purchase(3) + sales(3) 
   + inventory(3) = 0
 capacity_constraint_1: purchase(1) <= 300
 capacity_constraint_2: inventory(1) + purchase(2) <= 500
 capacity_constraint_3: inventory(2) + purchase(3) <= 500
END

